
******************************************************************************
This program contains Ipopt, a library for large-scale nonlinear optimization.
 Ipopt is released as open source code under the Eclipse Public License (EPL).
         For more information visit http://projects.coin-or.org/Ipopt

This version of Ipopt was compiled from source code available at
    https://github.com/IDAES/Ipopt as part of the Institute for the Design of
    Advanced Energy Systems Process Systems Engineering Framework (IDAES PSE
    Framework) Copyright (c) 2018-2019. See https://github.com/IDAES/idaes-pse.

This version of Ipopt was compiled using HSL, a collection of Fortran codes
    for large-scale scientific computation.  All technical papers, sales and
    publicity material resulting from use of the HSL codes within IPOPT must
    contain the following acknowledgement:
        HSL, a collection of Fortran codes for large-scale scientific
        computation. See http://www.hsl.rl.ac.uk.
******************************************************************************

This is Ipopt version 3.13.2, running with linear solver ma27.

Number of nonzeros in equality constraint Jacobian...:      808
Number of nonzeros in inequality constraint Jacobian.:        0
Number of nonzeros in Lagrangian Hessian.............:      702

Total number of variables............................:      351
                     variables with only lower bounds:      108
                variables with lower and upper bounds:      189
                     variables with only upper bounds:        0
Total number of equality constraints.................:      350
Total number of inequality constraints...............:        0
        inequality constraints with only lower bounds:        0
   inequality constraints with lower and upper bounds:        0
        inequality constraints with only upper bounds:        0

iter    objective    inf_pr   inf_du lg(mu)  ||d||  lg(rg) alpha_du alpha_pr  ls
   0  0.0000000e+00 3.70e-01 8.88e-16  -1.0 0.00e+00    -  0.00e+00 0.00e+00   0
   1  1.8970895e-01 8.24e-01 2.37e+04  -1.0 6.33e+04    -  8.62e-01 4.75e-01h  1
   2  8.7153217e-01 2.24e-01 1.07e+04  -1.0 3.53e+04    -  7.30e-02 9.90e-01h  1
   3  8.9873896e-01 4.52e-02 7.48e+02  -1.0 1.24e+03    -  9.88e-01 9.90e-01h  1
   4  9.3427927e-01 1.96e-02 3.16e+04  -1.0 9.85e+03    -  8.26e-01 9.90e-01h  1
   5  1.0337807e+00 1.23e-02 2.96e+05  -1.0 1.50e+04    -  9.74e-01 9.90e-01h  1
   6  9.5933312e-01 5.30e-04 1.08e+03  -1.0 1.04e+04    -  9.90e-01 9.90e-01h  1
   7  9.0409626e-01 9.42e-03 7.24e+04  -5.7 1.25e+04    -  9.79e-01 1.00e+00f  1
In iteration 7, 27 Slacks too small, adjusting variable bounds
   8  8.8841834e-01 6.13e-03 1.29e+10  -5.7 9.17e+03    -  9.93e-01 1.00e+00h  1
   9  8.8785148e-01 4.01e-05 5.76e-01  -5.7 1.48e+03    -  1.00e+00 1.00e+00h  1
iter    objective    inf_pr   inf_du lg(mu)  ||d||  lg(rg) alpha_du alpha_pr  ls
  10  8.8779843e-01 7.02e-05 2.52e-02  -5.7 5.97e+02    -  1.00e+00 1.00e+00h  1
  11  8.8779803e-01 1.94e-07 7.15e-07  -5.7 4.20e+01    -  1.00e+00 1.00e+00h  1
  12  8.8779803e-01 7.77e-10 1.05e-07  -8.6 2.02e+00    -  1.00e+00 1.00e+00h  1

Number of Iterations....: 12

                                   (scaled)                 (unscaled)
Objective...............:   8.8779802670595154e-01    8.8779802670595154e-01
Dual infeasibility......:   1.0523945093154907e-07    1.0523945093154907e-07
Constraint violation....:   7.7726597380589624e-10    7.7726597380589624e-10
Complementarity.........:   3.3457460568777412e-09    3.3457460568777412e-09
Overall NLP error.......:   7.7726597380589624e-10    1.0523945093154907e-07


Number of objective function evaluations             = 13
Number of objective gradient evaluations             = 13
Number of equality constraint evaluations            = 13
Number of inequality constraint evaluations          = 0
Number of equality constraint Jacobian evaluations   = 13
Number of inequality constraint Jacobian evaluations = 0
Number of Lagrangian Hessian evaluations             = 12
Total CPU secs in IPOPT (w/o function evaluations)   =      0.033
Total CPU secs in NLP function evaluations           =      0.243

EXIT: Optimal Solution Found.
